VER
4

OBJSENSE
MIN


QKDCONES
1 50
25 1 25 25 0
0 0 0 1.0
0 1 1 1.0
0 2 2 1.0
0 3 3 1.0
0 4 4 1.0
0 5 5 1.0
0 6 6 1.0
0 7 7 1.0
0 8 8 1.0
0 9 9 1.0
0 10 10 1.0
0 11 11 1.0
0 12 12 1.0
0 13 13 1.0
0 14 14 1.0
0 15 15 1.0
0 16 16 1.0
0 17 17 1.0
0 18 18 1.0
0 19 19 1.0
0 20 20 1.0
0 21 21 1.0
0 22 22 1.0
0 23 23 1.0
0 24 24 1.0
25 5 25 25 0
0 0 0 1.0
0 1 1 1.0
0 2 2 1.0
0 3 3 1.0
0 4 4 1.0
1 5 5 1.0
1 6 6 1.0
1 7 7 1.0
1 8 8 1.0
1 9 9 1.0
2 10 10 1.0
2 11 11 1.0
2 12 12 1.0
2 13 13 1.0
2 14 14 1.0
3 15 15 1.0
3 16 16 1.0
3 17 17 1.0
3 18 18 1.0
3 19 19 1.0
4 20 20 1.0
4 21 21 1.0
4 22 22 1.0
4 23 23 1.0
4 24 24 1.0

VAR
626 1
@0:HVECQKD 626

CON
3 1
L= 3

OBJACOORD
1
0 1.0

ACOORD
105
0 1 1.0
0 49 1.0
0 169 1.0
0 361 1.0
0 625 1.0
1 1 0.19999999999999996
1 4 0.19999999999999996
1 9 0.2
1 16 0.2
1 25 0.2
1 34 0.28284271247461906
1 36 0.19999999999999996
1 37 0.28284271247461895
1 49 0.19999999999999998
1 52 0.282842712474619
1 64 0.19999999999999998
1 69 0.28284271247461906
1 81 0.2
1 88 0.28284271247461906
1 100 0.20000000000000004
1 107 0.28284271247461906
1 119 0.28284271247461906
1 121 0.2
1 130 0.28284271247461906
1 132 0.282842712474619
1 144 0.19999999999999998
1 145 0.282842712474619
1 157 0.282842712474619
1 169 0.20000000000000004
1 172 0.28284271247461906
1 184 0.28284271247461906
1 196 0.2
1 201 0.28284271247461906
1 213 0.28284271247461906
1 225 0.20000000000000004
1 230 0.28284271247461906
1 242 0.28284271247461906
1 254 0.28284271247461906
1 256 0.2
1 263 0.28284271247461906
1 275 0.28284271247461906
1 277 0.28284271247461906
1 289 0.2
1 298 0.28284271247461906
1 300 0.28284271247461906
1 312 0.28284271247461906
1 324 0.2
1 325 0.28284271247461906
1 337 0.28284271247461906
1 349 0.28284271247461906
1 361 0.20000000000000004
1 364 0.28284271247461906
1 376 0.28284271247461906
1 388 0.2828427124746191
1 400 0.20000000000000007
1 403 0.28284271247461906
1 415 0.28284271247461906
1 427 0.28284271247461906
1 439 0.28284271247461906
1 441 0.2
1 446 0.28284271247461906
1 458 0.28284271247461906
1 470 0.28284271247461906
1 472 0.28284271247461906
1 484 0.20000000000000004
1 491 0.28284271247461906
1 503 0.28284271247461906
1 505 0.28284271247461906
1 517 0.28284271247461906
1 529 0.20000000000000004
1 538 0.28284271247461906
1 540 0.28284271247461906
1 552 0.28284271247461906
1 564 0.2828427124746191
1 576 0.20000000000000007
1 577 0.28284271247461906
1 589 0.28284271247461906
1 601 0.2828427124746191
1 613 0.2828427124746191
1 625 0.20000000000000007
2 1 1.0
2 4 1.0
2 9 1.0
2 16 1.0
2 25 1.0
2 36 1.0
2 49 1.0
2 64 1.0
2 81 1.0
2 100 1.0
2 121 1.0
2 144 1.0
2 169 1.0
2 196 1.0
2 225 1.0
2 256 1.0
2 289 1.0
2 324 1.0
2 361 1.0
2 400 1.0
2 441 1.0
2 484 1.0
2 529 1.0
2 576 1.0
2 625 1.0

BCOORD
3
0 0.96
1 0.96
2 1.0
